benchmarks_CP/INST_36x36/20/inst36x36_20_92.dzn
S=6;
start=[|
-1,	-1,	-1,	-1,	-1,	-1,	-1,	-1,	-1,	-1,	-1,	-1,	-1,	-1,	-1,	-1,	-1,	-1,	-1,	-1,	22,	23,	26,	-1,	10,	-1,	-1,	-1,	17,	-1,	30,	-1,	25,	18,	-1,	-1|
-1,	18,	-1,	-1,	-1,	-1,	6,	-1,	-1,	-1,	-1,	-1,	-1,	-1,	12,	-1,	-1,	-1,	-1,	-1,	-1,	-1,	-1,	-1,	-1,	-1,	36,	-1,	15,	-1,	-1,	9,	-1,	13,	-1,	-1|
-1,	25,	30,	-1,	-1,	-1,	-1,	-1,	-1,	-1,	-1,	-1,	-1,	-1,	-1,	-1,	-1,	22,	-1,	19,	-1,	13,	20,	-1,	-1,	-1,	-1,	-1,	1,	-1,	-1,	-1,	-1,	11,	-1,	29|
-1,	-1,	-1,	21,	11,	33,	-1,	-1,	-1,	-1,	-1,	13,	-1,	-1,	-1,	-1,	-1,	32,	-1,	-1,	-1,	31,	-1,	-1,	3,	-1,	-1,	-1,	29,	25,	-1,	-1,	-1,	-1,	2,	8|
7,	-1,	-1,	-1,	-1,	-1,	-1,	-1,	18,	-1,	-1,	31,	-1,	-1,	-1,	-1,	-1,	-1,	27,	-1,	-1,	11,	-1,	-1,	-1,	-1,	23,	-1,	-1,	-1,	-1,	-1,	-1,	-1,	-1,	-1|
20,	-1,	-1,	-1,	-1,	-1,	-1,	-1,	-1,	-1,	-1,	-1,	-1,	-1,	-1,	-1,	-1,	2,	-1,	-1,	16,	-1,	-1,	-1,	-1,	13,	-1,	-1,	-1,	-1,	-1,	10,	-1,	-1,	23,	-1|
-1,	-1,	-1,	-1,	34,	-1,	-1,	-1,	-1,	-1,	-1,	-1,	-1,	4,	35,	-1,	-1,	15,	-1,	-1,	-1,	-1,	-1,	-1,	-1,	-1,	-1,	-1,	-1,	-1,	-1,	-1,	-1,	31,	30,	-1|
-1,	-1,	25,	2,	-1,	-1,	-1,	-1,	-1,	-1,	20,	-1,	-1,	-1,	-1,	-1,	-1,	-1,	-1,	-1,	-1,	-1,	33,	-1,	-1,	15,	1,	-1,	9,	27,	36,	-1,	32,	-1,	-1,	-1|
-1,	-1,	-1,	-1,	-1,	-1,	23,	-1,	36,	-1,	-1,	-1,	14,	-1,	-1,	-1,	-1,	28,	-1,	-1,	26,	-1,	-1,	-1,	-1,	-1,	-1,	30,	13,	-1,	1,	-1,	-1,	-1,	17,	-1|
-1,	-1,	-1,	-1,	-1,	-1,	-1,	28,	-1,	-1,	-1,	-1,	-1,	-1,	17,	-1,	-1,	9,	-1,	-1,	34,	-1,	1,	-1,	-1,	-1,	-1,	11,	-1,	-1,	-1,	-1,	-1,	8,	-1,	-1|
-1,	13,	-1,	-1,	-1,	-1,	-1,	-1,	33,	-1,	-1,	-1,	6,	-1,	-1,	-1,	-1,	-1,	5,	-1,	-1,	-1,	-1,	22,	-1,	-1,	-1,	-1,	12,	-1,	-1,	-1,	-1,	-1,	15,	-1|
-1,	-1,	-1,	-1,	-1,	-1,	-1,	4,	-1,	-1,	-1,	-1,	-1,	-1,	-1,	-1,	-1,	25,	-1,	-1,	30,	-1,	-1,	-1,	-1,	-1,	-1,	-1,	20,	-1,	-1,	-1,	-1,	-1,	-1,	-1|
24,	-1,	-1,	18,	-1,	-1,	29,	-1,	-1,	5,	4,	-1,	-1,	-1,	-1,	-1,	-1,	14,	-1,	2,	-1,	-1,	-1,	-1,	-1,	-1,	-1,	-1,	-1,	-1,	-1,	13,	11,	-1,	-1,	-1|
-1,	-1,	23,	-1,	-1,	-1,	-1,	14,	-1,	-1,	-1,	-1,	19,	18,	-1,	-1,	2,	-1,	-1,	34,	-1,	-1,	-1,	-1,	35,	-1,	-1,	-1,	-1,	-1,	-1,	-1,	-1,	-1,	-1,	32|
-1,	-1,	-1,	-1,	-1,	-1,	-1,	-1,	-1,	-1,	-1,	-1,	-1,	-1,	16,	-1,	-1,	-1,	-1,	-1,	-1,	-1,	-1,	32,	-1,	-1,	-1,	-1,	-1,	-1,	-1,	14,	-1,	-1,	-1,	-1|
-1,	-1,	-1,	10,	-1,	-1,	-1,	-1,	-1,	21,	-1,	-1,	-1,	-1,	-1,	36,	-1,	-1,	-1,	6,	-1,	-1,	14,	30,	-1,	-1,	-1,	-1,	27,	-1,	35,	-1,	-1,	-1,	-1,	-1|
-1,	-1,	-1,	-1,	-1,	-1,	16,	-1,	-1,	-1,	-1,	-1,	23,	-1,	-1,	-1,	-1,	-1,	-1,	-1,	10,	-1,	13,	-1,	-1,	-1,	-1,	24,	-1,	-1,	2,	-1,	-1,	-1,	-1,	-1|
-1,	-1,	-1,	14,	19,	-1,	3,	-1,	17,	7,	-1,	-1,	-1,	-1,	-1,	-1,	-1,	-1,	-1,	-1,	-1,	-1,	-1,	-1,	-1,	-1,	6,	-1,	-1,	-1,	10,	-1,	-1,	29,	-1,	-1|
18,	-1,	-1,	-1,	-1,	-1,	-1,	21,	2,	-1,	-1,	-1,	-1,	-1,	-1,	-1,	-1,	-1,	-1,	-1,	-1,	-1,	-1,	5,	14,	9,	-1,	33,	-1,	-1,	-1,	-1,	-1,	-1,	-1,	-1|
-1,	-1,	-1,	-1,	-1,	-1,	-1,	-1,	-1,	-1,	-1,	-1,	-1,	-1,	-1,	-1,	-1,	-1,	-1,	25,	-1,	-1,	-1,	23,	-1,	-1,	-1,	-1,	-1,	-1,	-1,	-1,	-1,	-1,	-1,	-1|
-1,	36,	-1,	-1,	20,	-1,	-1,	-1,	-1,	-1,	-1,	-1,	-1,	-1,	-1,	-1,	-1,	-1,	-1,	-1,	-1,	26,	-1,	-1,	29,	-1,	-1,	-1,	-1,	6,	-1,	-1,	-1,	-1,	-1,	5|
-1,	26,	-1,	-1,	-1,	-1,	-1,	-1,	-1,	23,	7,	-1,	-1,	-1,	2,	-1,	34,	6,	-1,	-1,	20,	-1,	-1,	-1,	-1,	-1,	-1,	-1,	-1,	-1,	-1,	-1,	-1,	-1,	21,	-1|
-1,	-1,	-1,	-1,	-1,	-1,	-1,	-1,	-1,	-1,	-1,	30,	21,	-1,	27,	-1,	-1,	-1,	-1,	-1,	-1,	33,	-1,	-1,	-1,	-1,	-1,	35,	-1,	-1,	-1,	-1,	-1,	-1,	-1,	14|
-1,	6,	-1,	-1,	-1,	28,	-1,	-1,	-1,	-1,	-1,	-1,	5,	-1,	3,	-1,	20,	12,	-1,	22,	14,	-1,	-1,	-1,	-1,	-1,	-1,	-1,	-1,	-1,	-1,	11,	-1,	-1,	8,	-1|
-1,	-1,	-1,	-1,	18,	30,	-1,	-1,	-1,	9,	-1,	20,	-1,	-1,	5,	8,	-1,	-1,	-1,	12,	36,	-1,	25,	-1,	-1,	-1,	-1,	-1,	-1,	-1,	27,	-1,	-1,	-1,	11,	-1|
-1,	-1,	-1,	29,	-1,	26,	-1,	-1,	-1,	-1,	-1,	-1,	-1,	-1,	-1,	15,	-1,	-1,	-1,	-1,	-1,	-1,	-1,	-1,	-1,	-1,	-1,	-1,	-1,	-1,	9,	17,	-1,	-1,	-1,	-1|
-1,	-1,	-1,	-1,	-1,	11,	-1,	-1,	-1,	-1,	8,	-1,	-1,	-1,	-1,	-1,	-1,	18,	-1,	-1,	-1,	-1,	32,	-1,	-1,	7,	-1,	-1,	-1,	-1,	-1,	-1,	-1,	-1,	-1,	-1|
-1,	-1,	-1,	-1,	-1,	-1,	17,	-1,	26,	12,	-1,	-1,	-1,	25,	-1,	2,	-1,	-1,	-1,	16,	-1,	-1,	-1,	-1,	-1,	-1,	13,	-1,	-1,	-1,	-1,	-1,	-1,	-1,	-1,	-1|
-1,	10,	-1,	-1,	-1,	-1,	-1,	-1,	-1,	30,	-1,	-1,	-1,	22,	-1,	26,	-1,	-1,	-1,	-1,	-1,	-1,	15,	27,	-1,	-1,	-1,	-1,	-1,	-1,	-1,	-1,	-1,	-1,	-1,	-1|
-1,	-1,	-1,	25,	-1,	-1,	-1,	-1,	-1,	-1,	-1,	34,	-1,	-1,	32,	1,	-1,	-1,	-1,	-1,	2,	-1,	-1,	31,	-1,	-1,	-1,	-1,	-1,	12,	-1,	-1,	13,	-1,	-1,	-1|
-1,	-1,	-1,	-1,	-1,	25,	-1,	-1,	-1,	-1,	-1,	-1,	-1,	-1,	-1,	-1,	-1,	-1,	11,	-1,	-1,	-1,	-1,	-1,	-1,	-1,	-1,	-1,	-1,	33,	-1,	-1,	-1,	-1,	-1,	10|
-1,	-1,	-1,	15,	-1,	29,	-1,	26,	-1,	4,	-1,	-1,	-1,	-1,	-1,	-1,	21,	-1,	-1,	-1,	-1,	-1,	-1,	10,	-1,	-1,	-1,	-1,	-1,	-1,	17,	-1,	18,	34,	-1,	-1|
33,	-1,	-1,	20,	-1,	-1,	-1,	-1,	31,	19,	-1,	-1,	-1,	-1,	22,	-1,	-1,	8,	-1,	-1,	-1,	-1,	-1,	-1,	-1,	-1,	9,	-1,	11,	-1,	-1,	-1,	-1,	-1,	-1,	7|
-1,	-1,	-1,	-1,	31,	2,	33,	-1,	-1,	-1,	-1,	-1,	-1,	-1,	11,	-1,	-1,	-1,	-1,	-1,	-1,	-1,	-1,	-1,	-1,	-1,	-1,	27,	-1,	-1,	-1,	-1,	-1,	-1,	-1,	-1|
-1,	-1,	-1,	-1,	-1,	-1,	2,	-1,	-1,	-1,	-1,	-1,	-1,	12,	-1,	-1,	25,	-1,	-1,	-1,	-1,	20,	-1,	14,	-1,	4,	29,	-1,	35,	-1,	-1,	-1,	-1,	22,	33,	-1|
-1,	11,	-1,	-1,	-1,	6,	34,	-1,	-1,	-1,	-1,	7,	32,	-1,	-1,	-1,	18,	-1,	-1,	-1,	21,	-1,	-1,	-1,	12,	-1,	-1,	-1,	-1,	-1,	-1,	-1,	4,	-1,	-1,	-1|];
